6 40 4 10
20 6 19 11 18 3 7 16 2 20 10 14 13 10 10 15 15 3 15 16 17 1 5 8 19 7 1 15 4 4 4 2 6 19 9 7 19 17 2 17 
5.27 13.77 10.14 8.3 9.29 7.36 11.6 0.57 2.81 6.87 0.8 6.5 1.88 6.47 10.97 10.43 4.32 4.91 9.24 1.26 1.37 15.25 13.04 3.35 6.2 3.27 14.5 13.29 7.7 0.31 12.3 14.75 8.54 10.29 13.74 14.07 3.88 9.05 14.53 2.45 
0.71 12.13 5.18 7.88 11.74 4.91 5.85 10.23 7.58 6.96 9.44 6.81 5.23 4.24 10.29 5.32 7.84 0.98 4.06 5.86 8.09 14.92 12.24 3.52 2.17 10.46 10.8 4.83 8.79 7.47 7.02 0.59 14.02 9.35 13.94 13.87 0.93 9.04 13.76 15.1 
2.14 10.04 13.9 1.81 14.37 1.33 5.58 4.51 2.24 2.71 13.14 0.99 3.93 2.35 0.48 15.06 1.56 10.64 6.86 10.02 4.45 1.47 12.79 5.41 14.66 9.05 8.89 11.02 13.13 13.74 4.02 12.66 3.74 14.26 10.5 10.09 4.19 13.93 2.82 6.3 
4.48 10.38 12.3 13.11 0.72 14.33 0.41 14.19 4.74 0.05 8.4 4.2 11.8 3.81 5.11 13.38 1.88 1.94 15.53 9.41 13.71 6.04 15.46 3.18 13.52 6.86 10.18 11.4 8.97 10.44 0.79 13.86 6.33 3.17 4.61 6.63 9.52 14.13 7.42 12.17 
8 8 8 8 8 8 8 8 8 8 8 8 8 8 8 8 8 8 8 8 8 8 8 8 8 8 8 8 8 8 8 8 8 8 8 8 8 8 8 8 
0.75 3.72 2.81 1.48 12.43 3.52 1.66 15.3 2.2 4.55 7.25 9.3 0.24 9.81 7.79 9.42 15.53 8.82 2.63 13.34 0.13 1.11 5.17 8.72 1.12 2.74 7.04 10.55 13.61 9.75 14.25 7.8 10.46 10.45 0.75 8.25 10.25 3.33 9.35 6.87 
1 1 1 1 1 1 1 1 1 1 1 1 1 1 1 1 1 1 1 1 1 1 1 1 1 1 1 1 1 1 1 1 1 1 1 1 1 1 1 1 
1 1 1 1 1 1 1 1 1 1 1 1 1 1 1 1 1 1 1 1 1 1 1 1 1 1 1 1 1 1 1 1 1 1 1 1 1 1 1 1 
1 1 1 1 1 1 1 1 1 1 1 1 1 1 1 1 1 1 1 1 1 1 1 1 1 1 1 1 1 1 1 1 1 1 1 1 1 1 1 1 
1 1 1 1 1 1 1 1 1 1 1 1 1 1 1 1 1 1 1 1 1 1 1 1 1 1 1 1 1 1 1 1 1 1 1 1 1 1 1 1 
1 1 1 1 1 1 1 1 1 1 1 1 1 1 1 1 1 1 1 1 1 1 1 1 1 1 1 1 1 1 1 1 1 1 1 1 1 1 1 1 
1 1 1 1 1 1 1 1 1 1 1 1 1 1 1 1 1 1 1 1 1 1 1 1 1 1 1 1 1 1 1 1 1 1 1 1 1 1 1 1 
0.01 0.01 0.01 0.01 0.01 0.01 0.01 0.01 0.01 0.01 0.01 0.01 0.01 0.01 0.01 0.01 0.01 0.01 0.01 0.01 0.01 0.01 0.01 0.01 0.01 0.01 0.01 0.01 0.01 0.01 0.01 0.01 0.01 0.01 0.01 0.01 0.01 0.01 0.01 0.01 
0.02 0.02 0.02 0.02 0.02 0.02 0.02 0.02 0.02 0.02 0.02 0.02 0.02 0.02 0.02 0.02 0.02 0.02 0.02 0.02 0.02 0.02 0.02 0.02 0.02 0.02 0.02 0.02 0.02 0.02 0.02 0.02 0.02 0.02 0.02 0.02 0.02 0.02 0.02 0.02 
0.03 0.03 0.03 0.03 0.03 0.03 0.03 0.03 0.03 0.03 0.03 0.03 0.03 0.03 0.03 0.03 0.03 0.03 0.03 0.03 0.03 0.03 0.03 0.03 0.03 0.03 0.03 0.03 0.03 0.03 0.03 0.03 0.03 0.03 0.03 0.03 0.03 0.03 0.03 0.03 
0.04 0.04 0.04 0.04 0.04 0.04 0.04 0.04 0.04 0.04 0.04 0.04 0.04 0.04 0.04 0.04 0.04 0.04 0.04 0.04 0.04 0.04 0.04 0.04 0.04 0.04 0.04 0.04 0.04 0.04 0.04 0.04 0.04 0.04 0.04 0.04 0.04 0.04 0.04 0.04 
0.05 0.05 0.05 0.05 0.05 0.05 0.05 0.05 0.05 0.05 0.05 0.05 0.05 0.05 0.05 0.05 0.05 0.05 0.05 0.05 0.05 0.05 0.05 0.05 0.05 0.05 0.05 0.05 0.05 0.05 0.05 0.05 0.05 0.05 0.05 0.05 0.05 0.05 0.05 0.05 
1 1 1 1 1 1 1 1 1 1 1 1 1 1 1 1 1 1 1 1 1 1 1 1 1 1 1 1 1 1 1 1 1 1 1 1 1 1 1 1 
